(set-logic NRA)
(declare-fun a () Real)
(declare-fun b () Real)
(assert (exists ((x Real)) (exists ((y Real)) (and (= (* (+ (- 1) a) (+ (- 5) a) (+ (- 5) a)) 0) (= (* (+ (+ 2 (* a 9)) (* b 27)) (+ (+ 2 (* a (- 1))) b)) 0) (=  (+ (+ (+ 2241 (* a (+ (- 1054) (* a 93)))) (* b (+ 3141 (* a (+ (- 918) (* a 81)))))) (* x 1024)) 0) (=  (+ (+ (- 63) (* a (+ 34 (* a (- 3))))) (* y 32)) 0) (<= (* (- 1) (+ (- 1) (* a 4))) 0) (<=  (+ (- 7) (* a 4)) 0) (<= (* (- 1) (+ 3 (* b 4))) 0) (<=  (+ (- 3) (* b 4)) 0) (<= (* (- 1) (+ 1 x)) 0) (<=  x 0) (<= (* (- 1) y) 0) (<=  (+ (- 1) y) 0)))))
(apply qe)
